c Result of efficient AIG-to-CNF conversion using package CNF
p cnf 647 2422
2 583 584 -226 0
2 583 584 -3 0
-2 -583 0
-2 -584 0
-2 3 226 0
-3 -585 216 0
-3 4 211 216 0
-3 -4 -211 216 0
3 -216 0
3 585 4 -211 0
3 585 -4 211 0
4 -5 200 0
-4 5 0
-4 -200 0
5 611 -6 0
-5 -611 0
-5 6 0
6 612 -7 0
-6 -612 0
-6 7 0
7 613 -8 0
-7 -613 0
-7 8 0
8 -614 -192 0
8 614 -9 0
-8 614 9 0
-8 -614 192 0
-9 -10 -186 0
-9 10 186 0
9 10 -186 0
9 -10 186 0
10 -585 -11 0
10 -11 -50 0
10 -585 -50 0
-10 585 50 0
-10 11 50 0
-10 585 11 0
11 -642 12 -38 0
11 642 12 -23 0
-11 -12 0
-11 -642 38 0
-11 642 23 0
-12 13 19 21 22 0
12 -22 0
12 -13 0
12 -21 0
12 -19 0
-13 639 640 14 16 0
13 -639 0
13 -16 0
13 -14 0
13 -640 0
-14 631 637 638 15 0
14 -15 0
14 -638 0
14 -631 0
14 -637 0
-15 635 636 641 0
15 -635 0
15 -641 0
15 -636 0
-16 632 633 634 17 0
16 -17 0
16 -634 0
16 -632 0
16 -633 0
-17 627 628 18 0
17 -18 0
17 -628 0
17 -627 0
-18 623 624 629 630 0
18 -630 0
18 -629 0
18 -623 0
18 -624 0
-19 621 625 626 20 0
19 -20 0
19 -626 0
19 -621 0
19 -625 0
-20 619 620 0
20 -619 0
20 -620 0
-21 615 622 0
21 -615 0
21 -622 0
-22 616 617 618 0
22 -616 0
22 -618 0
22 -617 0
-23 643 24 0
-23 -643 31 0
23 -643 -31 0
23 643 -24 0
-24 644 25 0
-24 -644 28 0
24 -644 -28 0
24 644 -25 0
-25 645 27 0
-25 -645 26 0
25 -645 -26 0
25 645 -27 0
26 -620 -646 0
26 -619 646 0
-26 619 646 0
-26 620 -646 0
27 -618 -646 0
27 -617 646 0
-27 617 646 0
-27 618 -646 0
28 645 -29 0
28 -645 -30 0
-28 -645 30 0
-28 645 29 0
29 -622 -646 0
29 -621 646 0
-29 621 646 0
-29 622 -646 0
30 -624 -646 0
30 -623 646 0
-30 623 646 0
-30 624 -646 0
31 644 -32 0
31 -644 -35 0
-31 -644 35 0
-31 644 32 0
32 645 -33 0
32 -645 -34 0
-32 -645 34 0
-32 645 33 0
33 -626 -646 0
33 -625 646 0
-33 625 646 0
-33 626 -646 0
34 -628 -646 0
34 -627 646 0
-34 627 646 0
-34 628 -646 0
35 645 -36 0
35 -645 -37 0
-35 -645 37 0
-35 645 36 0
36 -630 -646 0
36 -629 646 0
-36 629 646 0
-36 630 -646 0
37 -632 -646 0
37 -631 646 0
-37 631 646 0
-37 632 -646 0
38 643 -39 0
38 -643 -46 0
-38 -643 46 0
-38 643 39 0
39 644 -40 0
39 -644 -43 0
-39 -644 43 0
-39 644 40 0
40 645 -41 0
40 -645 -42 0
-40 -645 42 0
-40 645 41 0
41 -634 -646 0
41 -633 646 0
-41 633 646 0
-41 634 -646 0
42 -636 -646 0
42 -635 646 0
-42 635 646 0
-42 636 -646 0
43 645 -44 0
43 -645 -45 0
-43 -645 45 0
-43 645 44 0
44 -638 -646 0
44 -637 646 0
-44 637 646 0
-44 638 -646 0
45 -640 -646 0
45 -639 646 0
-45 639 646 0
-45 640 -646 0
46 644 -47 0
46 -644 645 -646 0
-46 -644 -645 0
-46 644 47 0
-46 -644 646 0
47 645 -48 0
47 -645 -49 0
-47 -645 49 0
-47 645 48 0
48 -642 -646 0
48 -641 646 0
-48 641 646 0
-48 642 -646 0
49 -644 -646 0
49 -643 646 0
-49 643 646 0
-49 644 -646 0
50 -586 -51 0
50 -51 -78 0
50 -586 -78 0
-50 586 78 0
-50 51 78 0
-50 586 51 0
51 -642 12 -67 0
51 642 12 -52 0
-51 -12 0
-51 -642 67 0
-51 642 52 0
-52 643 53 0
-52 -643 60 0
52 -643 -60 0
52 643 -53 0
-53 644 54 0
-53 -644 57 0
53 -644 -57 0
53 644 -54 0
-54 645 56 0
-54 -645 55 0
54 -645 -55 0
54 645 -56 0
55 -621 -646 0
55 -620 646 0
-55 620 646 0
-55 621 -646 0
56 -619 -646 0
56 -618 646 0
-56 618 646 0
-56 619 -646 0
57 645 -58 0
57 -645 -59 0
-57 -645 59 0
-57 645 58 0
58 -623 -646 0
58 -622 646 0
-58 622 646 0
-58 623 -646 0
59 -625 -646 0
59 -624 646 0
-59 624 646 0
-59 625 -646 0
60 644 -61 0
60 -644 -64 0
-60 -644 64 0
-60 644 61 0
61 645 -62 0
61 -645 -63 0
-61 -645 63 0
-61 645 62 0
62 -627 -646 0
62 -626 646 0
-62 626 646 0
-62 627 -646 0
63 -629 -646 0
63 -628 646 0
-63 628 646 0
-63 629 -646 0
64 645 -65 0
64 -645 -66 0
-64 -645 66 0
-64 645 65 0
65 -631 -646 0
65 -630 646 0
-65 630 646 0
-65 631 -646 0
66 -633 -646 0
66 -632 646 0
-66 632 646 0
-66 633 -646 0
67 643 -68 0
67 -643 -75 0
-67 -643 75 0
-67 643 68 0
68 644 -69 0
68 -644 -72 0
-68 -644 72 0
-68 644 69 0
69 645 -70 0
69 -645 -71 0
-69 -645 71 0
-69 645 70 0
70 -635 -646 0
70 -634 646 0
-70 634 646 0
-70 635 -646 0
71 -637 -646 0
71 -636 646 0
-71 636 646 0
-71 637 -646 0
72 645 -73 0
72 -645 -74 0
-72 -645 74 0
-72 645 73 0
73 -639 -646 0
73 -638 646 0
-73 638 646 0
-73 639 -646 0
74 -641 -646 0
74 -640 646 0
-74 640 646 0
-74 641 -646 0
75 644 -76 0
-75 -644 0
-75 76 0
76 -644 -645 0
76 645 -77 0
76 -645 -646 0
-76 645 77 0
-76 644 -645 646 0
77 -643 -646 0
77 -642 646 0
-77 642 646 0
-77 643 -646 0
78 -587 -79 0
78 -79 -92 0
78 -587 -92 0
-78 587 92 0
-78 79 92 0
-78 587 79 0
79 -642 12 -87 0
79 642 12 -80 0
-79 -12 0
-79 -642 87 0
-79 642 80 0
-80 643 81 0
-80 -643 84 0
80 -643 -84 0
80 643 -81 0
-81 644 83 0
-81 -644 82 0
81 -644 -82 0
81 644 -83 0
82 645 -30 0
82 -645 -33 0
-82 -645 33 0
-82 645 30 0
83 645 -26 0
83 -645 -29 0
-83 -645 29 0
-83 645 26 0
84 644 -85 0
84 -644 -86 0
-84 -644 86 0
-84 644 85 0
85 645 -34 0
85 -645 -36 0
-85 -645 36 0
-85 645 34 0
86 645 -37 0
86 -645 -41 0
-86 -645 41 0
-86 645 37 0
87 643 -88 0
87 -643 -91 0
-87 -643 91 0
-87 643 88 0
88 644 -89 0
88 -644 -90 0
-88 -644 90 0
-88 644 89 0
89 645 -42 0
89 -645 -44 0
-89 -645 44 0
-89 645 42 0
90 645 -45 0
90 -645 -48 0
-90 -645 48 0
-90 645 45 0
91 644 -645 0
91 -643 644 646 0
-91 -644 0
-91 645 -646 0
-91 643 645 0
92 -588 -93 0
92 -93 -105 0
92 -588 -105 0
-92 588 105 0
-92 93 105 0
-92 588 93 0
93 -642 12 -101 0
93 642 12 -94 0
-93 -12 0
-93 -642 101 0
-93 642 94 0
94 643 -95 0
94 -643 -98 0
-94 -643 98 0
-94 643 95 0
95 644 -96 0
95 -644 -97 0
-95 -644 97 0
-95 644 96 0
96 645 -55 0
96 -645 -58 0
-96 -645 58 0
-96 645 55 0
97 645 -59 0
97 -645 -62 0
-97 -645 62 0
-97 645 59 0
98 644 -99 0
98 -644 -100 0
-98 -644 100 0
-98 644 99 0
99 645 -63 0
99 -645 -65 0
-99 -645 65 0
-99 645 63 0
100 645 -66 0
100 -645 -70 0
-100 -645 70 0
-100 645 66 0
101 643 -102 0
-101 -643 0
-101 102 0
102 644 -103 0
102 -644 -104 0
-102 -644 104 0
-102 644 103 0
103 645 -71 0
103 -645 -73 0
-103 -645 73 0
-103 645 71 0
104 645 -74 0
104 -645 -77 0
-104 -645 77 0
-104 645 74 0
105 -589 -106 0
105 -106 -113 0
105 -589 -113 0
-105 589 113 0
-105 106 113 0
-105 589 106 0
106 -642 12 -110 0
106 642 12 -107 0
-106 -12 0
-106 -642 110 0
-106 642 107 0
-107 643 108 0
-107 -643 109 0
107 -643 -109 0
107 643 -108 0
-108 -644 32 0
-108 644 28 0
108 644 -28 0
108 -644 -32 0
109 644 -35 0
109 -644 -40 0
-109 -644 40 0
-109 644 35 0
110 643 -112 0
110 -643 644 -111 0
-110 -643 -644 0
-110 643 112 0
-110 -643 111 0
111 645 -646 0
-111 -645 0
-111 646 0
112 644 -43 0
112 -644 -47 0
-112 -644 47 0
-112 644 43 0
113 -590 -114 0
113 -114 -120 0
113 -590 -120 0
-113 590 120 0
-113 114 120 0
-113 590 114 0
114 -642 12 -118 0
114 642 12 -115 0
-114 -12 0
-114 -642 118 0
-114 642 115 0
115 643 -116 0
115 -643 -117 0
-115 -643 117 0
-115 643 116 0
116 644 -57 0
116 -644 -61 0
-116 -644 61 0
-116 644 57 0
117 644 -64 0
117 -644 -69 0
-117 -644 69 0
-117 644 64 0
118 643 -119 0
-118 -643 0
-118 119 0
119 -644 -645 0
119 644 -72 0
119 -644 -77 0
-119 644 72 0
-119 -644 645 77 0
120 -591 -121 0
120 -121 -128 0
120 -591 -128 0
-120 591 128 0
-120 121 128 0
-120 591 121 0
121 -642 12 -125 0
121 642 12 -122 0
-121 -12 0
-121 -642 125 0
-121 642 122 0
122 643 -123 0
122 -643 -124 0
-122 -643 124 0
-122 643 123 0
123 644 -82 0
123 -644 -85 0
-123 -644 85 0
-123 644 82 0
124 644 -86 0
124 -644 -89 0
-124 -644 89 0
-124 644 86 0
125 643 -126 0
-125 -643 0
-125 126 0
126 644 -90 0
126 -644 -127 0
-126 -644 127 0
-126 644 90 0
-127 644 645 -646 0
-127 643 645 646 0
127 -645 0
127 -643 646 0
127 -644 -646 0
128 -592 -129 0
128 -129 -135 0
128 -592 -135 0
-128 592 135 0
-128 129 135 0
-128 592 129 0
129 -642 12 -133 0
129 642 12 -130 0
-129 -12 0
-129 -642 133 0
-129 642 130 0
130 643 -131 0
130 -643 -132 0
-130 -643 132 0
-130 643 131 0
131 644 -97 0
131 -644 -99 0
-131 -644 99 0
-131 644 97 0
132 644 -100 0
132 -644 -103 0
-132 -644 103 0
-132 644 100 0
133 643 -134 0
-133 -643 0
-133 134 0
134 644 -104 0
134 -644 645 646 0
-134 -644 -645 0
-134 644 104 0
-134 -644 -646 0
135 -593 -136 0
135 -136 -139 0
135 -593 -139 0
-135 593 139 0
-135 136 139 0
-135 593 136 0
136 -642 12 -138 0
136 642 12 -137 0
-136 -12 0
-136 -642 138 0
-136 642 137 0
137 643 -31 0
137 -643 -39 0
-137 -643 39 0
-137 643 31 0
138 643 -46 0
-138 -643 0
-138 46 0
139 -594 -140 0
139 -140 -143 0
139 -594 -143 0
-139 594 143 0
-139 140 143 0
-139 594 140 0
140 -642 12 -142 0
140 642 12 -141 0
-140 -12 0
-140 -642 142 0
-140 642 141 0
141 643 -60 0
141 -643 -68 0
-141 -643 68 0
-141 643 60 0
142 643 -75 0
-142 -643 0
-142 75 0
143 -595 -144 0
143 -144 -147 0
143 -595 -147 0
-143 595 147 0
-143 144 147 0
-143 595 144 0
144 -642 12 -146 0
144 642 12 -145 0
-144 -12 0
-144 -642 146 0
-144 642 145 0
145 643 -84 0
145 -643 -88 0
-145 -643 88 0
-145 643 84 0
146 643 644 -645 0
-146 645 0
-146 -644 0
-146 -643 0
147 -596 -148 0
147 -148 -150 0
147 -596 -150 0
-147 596 150 0
-147 148 150 0
-147 596 148 0
148 643 -98 149 0
148 -643 -102 149 0
-148 -149 0
-148 -643 102 0
-148 643 98 0
-149 642 12 0
149 -642 0
149 -12 0
150 -597 -151 0
150 -151 -154 0
150 -597 -154 0
-150 597 154 0
-150 151 154 0
-150 597 151 0
151 -642 12 -153 0
151 642 12 -152 0
-151 -12 0
-151 -642 153 0
-151 642 152 0
152 643 -109 0
152 -643 -112 0
-152 -643 112 0
-152 643 109 0
153 643 644 645 -646 0
-153 646 0
-153 -645 0
-153 -643 0
-153 -644 0
154 -598 -155 0
154 -155 -156 0
154 -598 -156 0
-154 598 156 0
-154 155 156 0
-154 598 155 0
155 643 -117 149 0
155 -643 -119 149 0
-155 -149 0
-155 -643 119 0
-155 643 117 0
156 -599 -157 0
156 -157 -159 0
156 -599 -159 0
-156 599 159 0
-156 157 159 0
-156 599 157 0
157 149 -158 0
-157 -149 0
-157 158 0
158 643 -124 0
158 -643 -126 0
-158 -643 126 0
-158 643 124 0
159 -600 -160 0
159 -160 -162 0
159 -600 -162 0
-159 600 162 0
-159 160 162 0
-159 600 160 0
160 149 -161 0
-160 -149 0
-160 161 0
161 643 -132 0
161 -643 -134 0
-161 -643 134 0
-161 643 132 0
162 -601 -163 0
162 -163 -164 0
162 -601 -164 0
-162 601 164 0
-162 163 164 0
-162 601 163 0
163 -38 149 0
-163 38 0
-163 -149 0
164 -602 -165 0
164 -165 -166 0
164 -602 -166 0
-164 602 166 0
-164 165 166 0
-164 602 165 0
165 -67 149 0
-165 67 0
-165 -149 0
166 -603 -167 0
166 -167 -168 0
166 -603 -168 0
-166 603 168 0
-166 167 168 0
-166 603 167 0
167 -87 149 0
-167 87 0
-167 -149 0
168 -604 -169 0
-168 604 0
-168 169 0
169 -605 -170 0
169 -170 -171 0
169 -605 -171 0
-169 605 171 0
-169 170 171 0
-169 605 170 0
170 -110 149 0
-170 110 0
-170 -149 0
171 -606 -172 0
171 -172 -173 0
171 -606 -173 0
-171 606 173 0
-171 172 173 0
-171 606 172 0
172 -118 149 0
-172 118 0
-172 -149 0
173 -607 -174 0
173 -174 -175 0
173 -607 -175 0
-173 607 175 0
-173 174 175 0
-173 607 174 0
174 -125 149 0
-174 125 0
-174 -149 0
175 -608 -176 0
175 -176 -177 0
175 -608 -177 0
-175 608 177 0
-175 176 177 0
-175 608 176 0
176 -133 149 0
-176 133 0
-176 -149 0
177 -609 -178 0
177 -178 -179 0
177 -609 -179 0
-177 609 179 0
-177 178 179 0
-177 609 178 0
178 -138 149 0
-178 138 0
-178 -149 0
179 -610 -180 0
179 -180 -181 0
179 -610 -181 0
-179 610 181 0
-179 180 181 0
-179 610 180 0
180 -142 149 0
-180 142 0
-180 -149 0
181 -611 -182 0
181 -182 -183 0
181 -611 -183 0
-181 611 183 0
-181 182 183 0
-181 611 182 0
182 643 644 -645 149 0
-182 -643 0
-182 -149 0
-182 645 0
-182 -644 0
183 -612 -184 0
-183 612 0
-183 184 0
184 -613 -185 0
-184 613 0
-184 185 0
185 149 -153 0
-185 -149 0
-185 153 0
186 584 -187 0
186 -584 187 0
-186 -584 -187 0
-186 584 187 0
187 642 12 -188 0
187 -642 12 -161 0
-187 -12 0
-187 642 188 0
-187 -642 161 0
-188 -643 131 0
-188 643 189 0
188 -643 -131 0
188 643 -189 0
-189 -644 96 0
-189 644 190 0
189 -644 -96 0
189 644 -190 0
-190 645 191 0
-190 -645 56 0
190 -645 -56 0
190 645 -191 0
191 -617 -646 0
191 -616 646 0
-191 616 646 0
-191 617 -646 0
192 -193 194 0
192 193 -194 0
-192 193 194 0
-192 -193 -194 0
193 -584 -10 0
193 -10 -187 0
193 -584 -187 0
-193 584 187 0
-193 10 187 0
-193 584 10 0
-194 -583 -195 0
-194 583 195 0
194 583 -195 0
194 -583 195 0
195 642 12 -196 0
195 -642 12 -158 0
-195 -12 0
-195 642 196 0
-195 -642 158 0
-196 -643 123 0
-196 643 197 0
196 -643 -123 0
196 643 -197 0
-197 -644 83 0
-197 644 198 0
197 -644 -83 0
197 644 -198 0
-198 645 199 0
-198 -645 27 0
198 -645 -27 0
198 645 -199 0
199 -616 -646 0
199 -615 646 0
-199 615 646 0
-199 616 -646 0
-200 586 201 0
200 -586 0
200 -201 0
-201 610 202 0
201 -610 0
201 -202 0
-202 606 203 205 207 0
202 -606 0
202 -207 0
202 -205 0
202 -203 0
-203 599 600 204 0
203 -204 0
203 -600 0
203 -599 0
-204 603 604 605 609 0
204 -609 0
204 -605 0
204 -603 0
204 -604 0
-205 607 608 206 0
205 -206 0
205 -608 0
205 -607 0
-206 591 592 593 594 0
206 -594 0
206 -593 0
206 -591 0
206 -592 0
-207 595 602 208 210 0
207 -595 0
207 -210 0
207 -208 0
207 -602 0
-208 589 590 601 209 0
208 -209 0
208 -601 0
208 -589 0
208 -590 0
-209 587 588 0
209 -587 0
209 -588 0
-210 596 597 598 0
210 -596 0
210 -598 0
210 -597 0
211 200 -212 0
-211 -200 0
-211 212 0
212 611 -213 0
-212 -611 0
-212 213 0
213 612 -214 0
-213 -612 0
-213 214 0
214 613 -215 0
-214 -613 0
-214 215 0
215 614 -187 0
215 -614 -195 0
-215 -614 195 0
-215 614 187 0
216 201 217 218 -222 0
216 201 217 -218 222 0
-216 -217 0
-216 218 222 0
-216 -201 0
-216 -218 -222 0
-217 585 586 0
217 -585 0
217 -586 0
218 611 -219 0
-218 -611 0
-218 219 0
219 612 -220 0
-219 -612 0
-219 220 0
220 613 -221 0
-220 -613 0
-220 221 0
221 614 -192 0
-221 -614 0
-221 192 0
222 611 -223 0
-222 -611 0
-222 223 0
223 612 -224 0
-223 -612 0
-223 224 0
224 613 -225 0
-224 -613 0
-224 225 0
225 614 -195 0
-225 -614 0
-225 195 0
226 217 -227 0
226 202 217 -366 0
-226 -217 0
-226 227 366 0
-226 -202 227 0
-227 228 -351 0
-227 228 332 0
-227 -202 228 0
227 -228 0
227 202 -332 351 0
228 202 229 -305 0
-228 -202 0
-228 -229 0
-228 305 0
-229 -610 230 0
-229 610 259 283 0
229 -610 -230 0
229 610 -283 0
229 610 -259 0
230 611 -231 0
230 -611 -254 0
-230 -611 254 0
-230 611 231 0
231 612 -232 0
231 -612 -243 0
-231 -612 243 0
-231 612 232 0
232 613 -233 0
232 -613 -238 0
-232 -613 238 0
-232 613 233 0
233 -614 -236 0
233 614 -234 0
-233 614 234 0
-233 -614 236 0
-234 -139 -235 0
-234 139 235 0
234 139 -235 0
234 -139 235 0
235 593 -136 0
235 -593 136 0
-235 -593 -136 0
-235 593 136 0
-236 -135 -237 0
-236 135 237 0
236 135 -237 0
236 -135 237 0
237 592 -129 0
237 -592 129 0
-237 -592 -129 0
-237 592 129 0
238 -614 -241 0
238 614 -239 0
-238 614 239 0
-238 -614 241 0
-239 -128 -240 0
-239 128 240 0
239 128 -240 0
239 -128 240 0
240 591 -121 0
240 -591 121 0
-240 -591 -121 0
-240 591 121 0
-241 -120 -242 0
-241 120 242 0
241 120 -242 0
241 -120 242 0
242 590 -114 0
242 -590 114 0
-242 -590 -114 0
-242 590 114 0
243 613 -244 0
243 -613 -249 0
-243 -613 249 0
-243 613 244 0
244 -614 -247 0
244 614 -245 0
-244 614 245 0
-244 -614 247 0
-245 -113 -246 0
-245 113 246 0
245 113 -246 0
245 -113 246 0
246 589 -106 0
246 -589 106 0
-246 -589 -106 0
-246 589 106 0
-247 -105 -248 0
-247 105 248 0
247 105 -248 0
247 -105 248 0
248 588 -93 0
248 -588 93 0
-248 -588 -93 0
-248 588 93 0
249 -614 -252 0
249 614 -250 0
-249 614 250 0
-249 -614 252 0
-250 -92 -251 0
-250 92 251 0
250 92 -251 0
250 -92 251 0
251 587 -79 0
251 -587 79 0
-251 -587 -79 0
-251 587 79 0
-252 -78 -253 0
-252 78 253 0
252 78 -253 0
252 -78 253 0
253 586 -51 0
253 -586 51 0
-253 -586 -51 0
-253 586 51 0
254 612 -255 0
-254 -612 0
-254 255 0
255 -613 -221 0
255 613 -256 0
-255 613 256 0
-255 -613 221 0
256 614 -257 0
256 -614 -9 0
-256 -614 9 0
-256 614 257 0
-257 -50 -258 0
-257 50 258 0
257 50 -258 0
257 -50 258 0
258 585 -11 0
258 -585 11 0
-258 -585 -11 0
-258 585 11 0
259 -611 -260 0
-259 611 0
-259 260 0
260 612 -261 0
260 -612 -272 0
-260 -612 272 0
-260 612 261 0
261 613 -262 0
261 -613 -267 0
-261 -613 267 0
-261 613 262 0
262 -614 -265 0
262 614 -263 0
-262 614 263 0
-262 -614 265 0
-263 -164 -264 0
-263 164 264 0
263 164 -264 0
263 -164 264 0
264 601 -163 0
264 -601 163 0
-264 -601 -163 0
-264 601 163 0
-265 -162 -266 0
-265 162 266 0
265 162 -266 0
265 -162 266 0
266 600 -160 0
266 -600 160 0
-266 -600 -160 0
-266 600 160 0
267 -614 -270 0
267 614 -268 0
-267 614 268 0
-267 -614 270 0
-268 -159 -269 0
-268 159 269 0
268 159 -269 0
268 -159 269 0
269 599 -157 0
269 -599 157 0
-269 -599 -157 0
-269 599 157 0
-270 -156 -271 0
-270 156 271 0
270 156 -271 0
270 -156 271 0
271 598 -155 0
271 -598 155 0
-271 -598 -155 0
-271 598 155 0
272 613 -273 0
272 -613 -278 0
-272 -613 278 0
-272 613 273 0
273 -614 -276 0
273 614 -274 0
-273 614 274 0
-273 -614 276 0
-274 -154 -275 0
-274 154 275 0
274 154 -275 0
274 -154 275 0
275 597 -151 0
275 -597 151 0
-275 -597 -151 0
-275 597 151 0
-276 -150 -277 0
-276 150 277 0
276 150 -277 0
276 -150 277 0
277 596 -148 0
277 -596 148 0
-277 -596 -148 0
-277 596 148 0
278 -614 -281 0
278 614 -279 0
-278 614 279 0
-278 -614 281 0
-279 -147 -280 0
-279 147 280 0
279 147 -280 0
279 -147 280 0
280 595 -144 0
280 -595 144 0
-280 -595 -144 0
-280 595 144 0
-281 -143 -282 0
-281 143 282 0
281 143 -282 0
281 -143 282 0
282 594 -140 0
282 -594 140 0
-282 -594 -140 0
-282 594 140 0
283 611 -612 -295 0
283 611 612 -284 0
-283 -611 0
-283 -612 295 0
-283 612 284 0
284 613 -285 0
284 -613 -290 0
-284 -613 290 0
-284 613 285 0
285 614 -286 0
285 -614 -288 0
-285 -614 288 0
-285 614 286 0
286 179 -287 0
286 -179 287 0
-286 -179 -287 0
-286 179 287 0
287 609 -178 0
287 -609 178 0
-287 -609 -178 0
-287 609 178 0
288 177 -289 0
288 -177 289 0
-288 -177 -289 0
-288 177 289 0
289 608 -176 0
289 -608 176 0
-289 -608 -176 0
-289 608 176 0
290 -614 -293 0
290 614 -291 0
-290 614 291 0
-290 -614 293 0
-291 -175 -292 0
-291 175 292 0
291 175 -292 0
291 -175 292 0
292 607 -174 0
292 -607 174 0
-292 -607 -174 0
-292 607 174 0
-293 -173 -294 0
-293 173 294 0
293 173 -294 0
293 -173 294 0
294 606 -172 0
294 -606 172 0
-294 -606 -172 0
-294 606 172 0
295 613 -296 0
295 -613 -300 0
-295 -613 300 0
-295 613 296 0
296 -614 -299 0
296 614 -297 0
-296 614 297 0
-296 -614 299 0
-297 -171 -298 0
-297 171 298 0
297 171 -298 0
297 -171 298 0
298 605 -170 0
298 -605 170 0
-298 -605 -170 0
-298 605 170 0
-299 -604 -169 0
-299 604 169 0
299 604 -169 0
299 -604 169 0
300 -614 -303 0
300 614 -301 0
-300 614 301 0
-300 -614 303 0
-301 -168 -302 0
-301 168 302 0
301 168 -302 0
301 -168 302 0
302 603 -167 0
302 -603 167 0
-302 -603 -167 0
-302 603 167 0
-303 -166 -304 0
-303 166 304 0
303 166 -304 0
303 -166 304 0
304 602 -165 0
304 -602 165 0
-304 -602 -165 0
-304 602 165 0
-305 610 306 0
-305 -610 321 0
305 -610 -321 0
305 610 -306 0
-306 611 307 0
-306 -611 314 0
306 -611 -314 0
306 611 -307 0
-307 612 311 0
-307 -612 308 0
307 -612 -308 0
307 612 -311 0
308 613 -309 0
308 -613 -310 0
-308 -613 310 0
-308 613 309 0
309 614 -170 0
-309 -614 0
-309 170 0
310 -614 -165 0
310 614 -167 0
-310 614 167 0
-310 -614 165 0
311 613 -312 0
311 -613 -313 0
-311 -613 313 0
-311 613 312 0
312 -614 -176 0
312 614 -178 0
-312 614 178 0
-312 -614 176 0
313 -614 -172 0
313 614 -174 0
-313 614 174 0
-313 -614 172 0
314 612 -315 0
314 -612 -318 0
-314 -612 318 0
-314 612 315 0
315 613 -316 0
315 -613 -317 0
-315 -613 317 0
-315 613 316 0
316 -614 -160 0
316 614 -163 0
-316 614 163 0
-316 -614 160 0
317 -614 -155 0
317 614 -157 0
-317 614 157 0
-317 -614 155 0
318 613 -319 0
318 -613 -320 0
-318 -613 320 0
-318 613 319 0
319 -614 -148 0
319 614 -151 0
-319 614 151 0
-319 -614 148 0
320 -614 -140 0
320 614 -144 0
-320 614 144 0
-320 -614 140 0
321 611 -322 0
321 -611 -329 0
-321 -611 329 0
-321 611 322 0
322 612 -323 0
322 -612 -326 0
-322 -612 326 0
-322 612 323 0
323 613 -324 0
323 -613 -325 0
-323 -613 325 0
-323 613 324 0
324 -614 -129 0
324 614 -136 0
-324 614 136 0
-324 -614 129 0
325 -614 -114 0
325 614 -121 0
-325 614 121 0
-325 -614 114 0
326 613 -327 0
326 -613 -328 0
-326 -613 328 0
-326 613 327 0
327 -614 -93 0
327 614 -106 0
-327 614 106 0
-327 -614 93 0
328 -614 -51 0
328 614 -79 0
-328 614 79 0
-328 -614 51 0
329 612 -330 0
-329 -612 0
-329 330 0
330 -613 -225 0
330 613 -331 0
-330 613 331 0
-330 -613 225 0
331 614 -11 0
331 -614 -187 0
-331 -614 187 0
-331 614 11 0
-332 -610 333 0
-332 610 339 0
332 -610 -333 0
332 610 -339 0
333 611 -334 0
333 -611 -337 0
-333 -611 337 0
-333 611 334 0
334 612 -335 0
334 -612 -336 0
-334 -612 336 0
-334 612 335 0
335 -613 -233 0
335 613 -278 0
-335 613 278 0
-335 -613 233 0
336 613 -238 0
336 -613 -244 0
-336 -613 244 0
-336 613 238 0
337 -612 -220 0
337 612 -338 0
-337 612 338 0
-337 -612 220 0
338 613 -249 0
338 -613 -256 0
-338 -613 256 0
-338 613 249 0
-339 611 345 0
-339 -611 340 0
-339 611 -343 0
339 -611 -340 0
339 611 343 -345 0
340 612 -341 0
340 -612 -342 0
-340 -612 342 0
-340 612 341 0
341 -613 -262 0
341 613 -300 0
-341 613 300 0
-341 -613 262 0
342 613 -267 0
342 -613 -273 0
-342 -613 273 0
-342 613 267 0
343 -612 344 0
-343 612 0
-343 -344 0
344 613 -290 0
344 -613 -296 0
-344 -613 296 0
-344 613 290 0
-345 612 -613 285 0
-345 612 613 346 0
345 -612 0
345 -613 -285 0
345 613 -346 0
346 614 -347 0
346 -614 -349 0
-346 -614 349 0
-346 614 347 0
347 183 -348 0
347 -183 348 0
-347 -183 -348 0
-347 183 348 0
348 611 -182 0
348 -611 182 0
-348 -611 -182 0
-348 611 182 0
349 181 -350 0
349 -181 350 0
-349 -181 -350 0
-349 181 350 0
350 610 -180 0
350 -610 180 0
-350 -610 -180 0
-350 610 180 0
-351 610 352 0
-351 -610 360 0
351 -610 -360 0
351 610 -352 0
-352 611 353 0
-352 -611 357 0
352 -611 -357 0
352 611 -353 0
-353 612 354 0
-353 -612 356 0
353 -612 -356 0
353 612 -354 0
-354 613 355 0
-354 -613 312 0
354 -613 -312 0
354 613 -355 0
355 -614 -180 0
355 614 -182 0
-355 614 182 0
-355 -614 180 0
356 -613 -309 0
356 613 -313 0
-356 613 313 0
-356 -613 309 0
357 612 -358 0
357 -612 -359 0
-357 -612 359 0
-357 612 358 0
358 613 -310 0
358 -613 -316 0
-358 -613 316 0
-358 613 310 0
359 613 -317 0
359 -613 -319 0
-359 -613 319 0
-359 613 317 0
360 611 -361 0
360 -611 -364 0
-360 -611 364 0
-360 611 361 0
361 612 -362 0
361 -612 -363 0
-361 -612 363 0
-361 612 362 0
362 613 -320 0
362 -613 -324 0
-362 -613 324 0
-362 613 320 0
363 613 -325 0
363 -613 -327 0
-363 -613 327 0
-363 613 325 0
364 -612 -224 0
364 612 -365 0
-364 612 365 0
-364 -612 224 0
365 613 -328 0
365 -613 -331 0
-365 -613 331 0
-365 613 328 0
-366 367 442 480 517 0
366 -367 0
366 -517 0
366 -480 0
366 -442 0
367 610 -419 0
367 610 -368 0
367 610 -435 0
-367 -610 0
-367 368 419 435 0
-368 369 371 373 376 0
-368 -369 -371 373 376 0
368 -376 0
368 -369 371 0
368 -373 0
368 369 -371 0
369 611 -370 0
-369 -611 0
-369 370 0
370 612 -243 0
370 -612 -255 0
-370 -612 255 0
-370 612 243 0
371 611 -372 0
-371 -611 0
-371 372 0
372 612 -326 0
372 -612 -330 0
-372 -612 330 0
-372 612 326 0
-373 333 360 -374 -375 0
-373 -333 -360 -374 -375 0
-373 333 360 374 375 0
-373 -333 -360 374 375 0
373 333 -360 0
373 -333 360 0
373 374 -375 0
373 -374 375 0
374 611 -254 0
-374 -611 0
-374 254 0
375 611 -329 0
-375 -611 0
-375 329 0
-376 388 399 0
-376 201 -377 399 0
376 -399 0
376 377 -388 0
376 -201 -388 0
377 611 -378 0
377 -611 -385 0
-377 -611 385 0
-377 611 378 0
378 612 -379 0
378 -612 -382 0
-378 -612 382 0
-378 612 379 0
379 613 -380 0
379 -613 -381 0
-379 -613 381 0
-379 613 380 0
380 -614 -136 0
380 614 -140 0
-380 614 140 0
-380 -614 136 0
381 -614 -121 0
381 614 -129 0
-381 614 129 0
-381 -614 121 0
382 613 -383 0
382 -613 -384 0
-382 -613 384 0
-382 613 383 0
383 -614 -106 0
383 614 -114 0
-383 614 114 0
-383 -614 106 0
384 -614 -79 0
384 614 -93 0
-384 614 93 0
-384 -614 79 0
385 612 -386 0
-385 -612 0
-385 386 0
386 -613 -215 0
386 613 -387 0
-386 613 387 0
-386 -613 215 0
387 -614 -11 0
387 614 -51 0
-387 614 51 0
-387 -614 11 0
388 611 -389 0
388 -611 -396 0
-388 -611 396 0
-388 611 389 0
389 612 -390 0
389 -612 -393 0
-389 -612 393 0
-389 612 390 0
390 613 -391 0
390 -613 -392 0
-390 -613 392 0
-390 613 391 0
391 614 -281 0
391 -614 -234 0
-391 -614 234 0
-391 614 281 0
392 -614 -239 0
392 614 -236 0
-392 614 236 0
-392 -614 239 0
393 613 -394 0
393 -613 -395 0
-393 -613 395 0
-393 613 394 0
394 -614 -245 0
394 614 -241 0
-394 614 241 0
-394 -614 245 0
395 -614 -250 0
395 614 -247 0
-395 614 247 0
-395 -614 250 0
396 612 -397 0
-396 -612 0
-396 397 0
397 -613 -8 0
397 613 -398 0
-397 613 398 0
-397 -613 8 0
398 -614 -257 0
398 614 -252 0
-398 614 252 0
-398 -614 257 0
-399 -407 414 0
-399 400 414 0
399 -414 0
399 -400 407 0
-400 611 403 0
-400 -611 401 0
400 -611 -401 0
400 611 -403 0
401 -612 -7 0
401 612 -402 0
-401 612 402 0
-401 -612 7 0
402 613 -395 0
402 -613 -398 0
-402 -613 398 0
-402 613 395 0
403 612 -404 0
403 -612 -406 0
-403 -612 406 0
-403 612 404 0
404 -613 -391 0
404 613 -405 0
-404 613 405 0
-404 -613 391 0
405 -614 -279 0
405 614 -276 0
-405 614 276 0
-405 -614 279 0
406 613 -392 0
406 -613 -394 0
-406 -613 394 0
-406 613 392 0
407 611 -408 0
407 -611 -412 0
-407 -611 412 0
-407 611 408 0
408 612 -409 0
408 -612 -411 0
-408 -612 411 0
-408 612 409 0
409 -613 -380 0
409 613 -410 0
-409 613 410 0
-409 -613 380 0
410 -614 -144 0
410 614 -148 0
-410 614 148 0
-410 -614 144 0
411 613 -381 0
411 -613 -383 0
-411 -613 383 0
-411 613 381 0
412 -612 -214 0
412 612 -413 0
-412 612 413 0
-412 -612 214 0
413 613 -384 0
413 -613 -387 0
-413 -613 387 0
-413 613 384 0
-414 415 416 -417 -418 0
-414 -415 -416 -417 -418 0
-414 415 416 417 418 0
-414 -415 -416 417 418 0
414 415 -416 0
414 -415 416 0
414 417 -418 0
414 -417 418 0
415 611 -396 0
-415 -611 0
-415 396 0
416 611 -385 0
-416 -611 0
-416 385 0
417 611 -401 0
-417 -611 0
-417 401 0
418 611 -412 0
-418 -611 0
-418 412 0
-419 -420 -425 430 0
-419 420 425 430 0
419 -430 0
419 -420 425 0
419 420 -425 0
-420 611 422 0
-420 -611 421 0
420 -611 -421 0
420 611 -422 0
421 612 -393 0
421 -612 -397 0
-421 -612 397 0
-421 612 393 0
422 -612 -390 0
422 612 -423 0
-422 612 423 0
-422 -612 390 0
423 -613 -405 0
423 613 -424 0
-423 613 424 0
-423 -613 405 0
424 -614 -274 0
424 614 -270 0
-424 614 270 0
-424 -614 274 0
425 611 -426 0
425 -611 -429 0
-425 -611 429 0
-425 611 426 0
426 -612 -379 0
426 612 -427 0
-426 612 427 0
-426 -612 379 0
427 -613 -410 0
427 613 -428 0
-427 613 428 0
-427 -613 410 0
428 -614 -151 0
428 614 -155 0
-428 614 155 0
-428 -614 151 0
429 612 -382 0
429 -612 -386 0
-429 -612 386 0
-429 612 382 0
-430 377 -431 0
-430 -388 433 0
-430 -388 -431 0
-430 377 433 0
430 -377 388 0
430 431 -433 0
-431 611 432 0
-431 -611 370 0
431 -611 -370 0
431 611 -432 0
432 -612 -232 0
432 612 -272 0
-432 612 272 0
-432 -612 232 0
433 -611 -372 0
433 611 -434 0
-433 611 434 0
-433 -611 372 0
434 612 -318 0
434 -612 -323 0
-434 -612 323 0
-434 612 318 0
-435 436 437 438 439 0
-435 436 -437 -438 439 0
435 -439 0
435 -437 438 0
435 -436 0
435 437 -438 0
436 -431 433 0
-436 431 0
-436 -433 0
437 611 -421 0
-437 -611 0
-437 421 0
438 611 -429 0
-438 -611 0
-438 429 0
-439 407 440 441 0
-439 -400 -440 -441 0
-439 -400 440 441 0
-439 407 -440 -441 0
439 440 -441 0
439 -440 441 0
439 400 -407 0
440 611 -337 0
-440 -611 0
-440 337 0
441 611 -364 0
-441 -611 0
-441 364 0
-442 445 447 0
-442 202 -443 447 0
442 -447 0
442 -202 -445 0
442 443 -445 0
443 -374 -444 0
443 610 -444 0
-443 444 0
-443 -610 374 0
-444 610 -611 231 0
-444 610 611 260 0
444 -610 0
444 -611 -231 0
444 611 -260 0
-445 -610 375 0
-445 610 446 0
445 -610 -375 0
445 610 -446 0
-446 -611 322 0
-446 611 314 0
446 611 -314 0
446 -611 -322 0
-447 457 -466 -473 0
-447 457 466 473 0
-447 -448 -466 -473 0
-447 -448 466 473 0
447 -466 473 0
447 466 -473 0
447 448 -457 0
-448 -610 437 0
-448 610 449 0
448 -610 -437 0
448 610 -449 0
-449 611 450 0
-449 -611 422 0
449 -611 -422 0
449 611 -450 0
450 612 -451 0
450 -612 -454 0
-450 -612 454 0
-450 612 451 0
451 613 -452 0
451 -613 -453 0
-451 -613 453 0
-451 613 452 0
452 -614 -297 0
452 614 -293 0
-452 614 293 0
-452 -614 297 0
453 -614 -301 0
453 614 -299 0
-453 614 299 0
-453 -614 301 0
454 613 -455 0
454 -613 -456 0
-454 -613 456 0
-454 613 455 0
455 614 -303 0
455 -614 -263 0
-455 -614 263 0
-455 614 303 0
456 -614 -268 0
456 614 -265 0
-456 614 265 0
-456 -614 268 0
-457 -610 438 0
-457 610 458 0
457 -610 -438 0
457 610 -458 0
-458 611 459 0
-458 -611 426 0
458 -611 -426 0
458 611 -459 0
459 612 -460 0
459 -612 -463 0
-459 -612 463 0
-459 612 460 0
460 613 -461 0
460 -613 -462 0
-460 -613 462 0
-460 613 461 0
461 -614 -170 0
461 614 -172 0
-461 614 172 0
-461 -614 170 0
462 -614 -167 0
-462 614 0
-462 167 0
463 613 -464 0
463 -613 -465 0
-463 -613 465 0
-463 613 464 0
464 -614 -163 0
464 614 -165 0
-464 614 165 0
-464 -614 163 0
465 -614 -157 0
465 614 -160 0
-465 614 160 0
-465 -614 157 0
-466 -610 388 0
-466 610 467 469 0
466 -610 -388 0
466 610 -469 0
466 610 -467 0
467 -611 -468 0
-467 611 0
-467 468 0
468 -612 -423 0
468 612 -454 0
-468 612 454 0
-468 -612 423 0
469 611 612 -470 0
469 611 -612 -451 0
-469 -611 0
-469 -612 451 0
-469 612 470 0
470 613 -471 0
470 -613 -472 0
-470 -613 472 0
-470 613 471 0
471 -614 -286 0
471 614 -349 0
-471 614 349 0
-471 -614 286 0
472 614 -288 0
472 -614 -291 0
-472 -614 291 0
-472 614 288 0
473 -610 -377 0
473 610 -474 0
-473 610 474 0
-473 -610 377 0
474 611 -475 0
474 -611 -479 0
-474 -611 479 0
-474 611 475 0
475 -612 -460 0
475 612 -476 0
-475 612 476 0
-475 -612 460 0
476 613 -477 0
476 -613 -478 0
-476 -613 478 0
-476 613 477 0
477 -614 -178 0
477 614 -180 0
-477 614 180 0
-477 -614 178 0
478 -614 -174 0
478 614 -176 0
-478 614 176 0
-478 -614 174 0
479 -612 -427 0
479 612 -463 0
-479 612 463 0
-479 -612 427 0
-480 481 486 504 0
-480 481 -495 504 0
480 -504 0
480 -481 0
480 -486 495 0
-481 -445 482 0
-481 443 -484 0
-481 -445 -484 0
-481 443 482 0
481 -443 445 0
481 -482 484 0
482 -415 -483 0
482 610 -483 0
-482 483 0
-482 -610 415 0
-483 610 -611 389 0
-483 610 611 468 0
483 -610 0
483 -611 -389 0
483 611 -468 0
-484 -610 416 0
-484 610 485 0
484 -610 -416 0
484 610 -485 0
-485 611 479 0
-485 -611 378 0
485 -611 -378 0
485 611 -479 0
-486 -610 487 0
-486 610 489 492 0
486 -610 -487 0
486 610 -492 0
486 610 -489 0
487 -611 -6 0
487 611 -488 0
-487 611 488 0
-487 -611 6 0
488 -612 -402 0
488 612 -406 0
-488 612 406 0
-488 -612 402 0
489 -611 -490 0
-489 611 0
-489 490 0
490 -612 -404 0
490 612 -491 0
-490 612 491 0
-490 -612 404 0
491 -613 -424 0
491 613 -456 0
-491 613 456 0
-491 -613 424 0
492 611 -612 -494 0
492 611 612 -493 0
-492 -611 0
-492 -612 494 0
-492 612 493 0
493 -613 -452 0
493 613 -472 0
-493 613 472 0
-493 -613 452 0
494 613 -453 0
494 -613 -455 0
-494 -613 455 0
-494 613 453 0
-495 610 496 0
-495 -610 502 0
495 -610 -502 0
495 610 -496 0
-496 611 497 0
-496 -611 500 0
496 -611 -500 0
496 611 -497 0
-497 612 499 0
-497 -612 498 0
497 -612 -498 0
497 612 -499 0
498 613 -462 0
498 -613 -464 0
-498 -613 464 0
-498 613 462 0
499 -613 -461 0
499 613 -478 0
-499 613 478 0
-499 -613 461 0
500 -612 -409 0
500 612 -501 0
-500 612 501 0
-500 -612 409 0
501 -613 -428 0
501 613 -465 0
-501 613 465 0
-501 -613 428 0
502 -611 -213 0
502 611 -503 0
-502 611 503 0
-502 -611 213 0
503 612 -411 0
503 -612 -413 0
-503 -612 413 0
-503 612 411 0
-504 -482 511 0
-504 484 -505 0
-504 -482 -505 0
-504 484 511 0
504 482 -484 0
504 505 -511 0
-505 -610 506 0
-505 610 508 510 0
505 -610 -506 0
505 610 -510 0
505 610 -508 0
506 -611 -219 0
506 611 -507 0
-506 611 507 0
-506 -611 219 0
507 612 -336 0
507 -612 -338 0
-507 -612 338 0
-507 612 336 0
508 -611 -509 0
-508 611 0
-508 509 0
509 -612 -335 0
509 612 -342 0
-509 612 342 0
-509 -612 335 0
510 611 612 -344 0
510 611 -612 -341 0
-510 -611 0
-510 -612 341 0
-510 612 344 0
-511 610 512 0
-511 -610 515 0
511 -610 -515 0
511 610 -512 0
-512 611 513 0
-512 -611 514 0
512 -611 -514 0
512 611 -513 0
-513 -612 358 0
-513 612 356 0
513 612 -356 0
513 -612 -358 0
514 612 -359 0
514 -612 -362 0
-514 -612 362 0
-514 612 359 0
515 -611 -223 0
515 611 -516 0
-515 611 516 0
-515 -611 223 0
516 612 -363 0
516 -612 -365 0
-516 -612 365 0
-516 612 363 0
-517 -518 -525 530 551 0
-517 518 525 530 551 0
517 -551 0
517 -518 525 0
517 -530 0
517 518 -525 0
-518 -610 431 0
-518 610 519 0
518 610 -519 0
518 -610 -431 0
-519 611 522 0
-519 -611 520 0
-519 611 -521 0
519 -611 -520 0
519 611 521 -522 0
520 -612 -261 0
520 612 -295 0
-520 612 295 0
-520 -612 261 0
521 -612 284 0
-521 612 0
-521 -284 0
-522 346 523 0
-522 613 523 0
522 -523 0
522 -613 -346 0
-523 612 -614 0
-523 612 524 0
523 -612 0
523 614 -524 0
524 613 -185 0
-524 -613 0
-524 185 0
525 -610 -433 0
525 610 -526 0
-525 610 526 0
-525 -610 433 0
526 -611 -529 0
526 611 527 -528 0
-526 611 -527 0
-526 -611 529 0
-526 611 528 0
527 -612 311 0
-527 612 0
-527 -311 0
-528 355 523 0
-528 613 523 0
528 -523 0
528 -613 -355 0
529 612 -308 0
529 -612 -315 0
-529 -612 315 0
-529 612 308 0
-530 -537 542 0
-530 531 542 0
530 -542 0
530 -531 537 0
-531 -610 420 0
-531 610 532 0
531 610 -532 0
531 -610 -420 0
-532 611 534 0
-532 -611 450 0
-532 611 -533 0
532 -611 -450 0
532 611 533 -534 0
533 -612 470 0
-533 612 0
-533 -470 0
-534 535 536 0
-534 613 536 0
534 -536 0
534 -613 -535 0
535 -614 -347 0
535 -612 614 184 0
535 612 614 -184 0
-535 -614 347 0
-535 -612 614 -184 0
-535 612 614 184 0
-536 612 524 0
-536 612 614 0
536 -612 0
536 -614 -524 0
537 -610 -425 0
537 610 -538 0
-537 610 538 0
-537 -610 425 0
538 -611 -459 0
538 611 539 -540 0
-538 611 540 0
-538 -611 459 0
-538 611 -539 0
539 -612 476 0
-539 612 0
-539 -476 0
-540 613 536 0
-540 536 541 0
540 -536 0
540 -613 -541 0
541 -614 -182 0
-541 614 0
-541 182 0
-542 -543 -545 -547 -549 0
-542 543 545 547 549 0
-542 -543 -545 547 549 0
-542 543 545 -547 -549 0
542 -543 545 0
542 543 -545 0
542 547 -549 0
542 -547 549 0
543 -5 -544 0
543 610 -544 0
-543 544 0
-543 -610 5 0
-544 610 -611 488 0
-544 610 611 490 0
544 -610 0
544 -611 -488 0
544 611 -490 0
-545 -610 212 0
-545 610 546 0
545 -610 -212 0
545 610 -546 0
-546 -611 503 0
-546 611 500 0
546 611 -500 0
546 -611 -503 0
547 -218 -548 0
547 610 -548 0
-547 548 0
-547 -610 218 0
-548 610 -611 507 0
-548 610 611 509 0
548 -610 0
548 -611 -507 0
548 611 -509 0
-549 -610 222 0
-549 610 550 0
549 -610 -222 0
549 610 -550 0
-550 -611 516 0
-550 611 514 0
550 611 -514 0
550 -611 -516 0
-551 448 552 570 0
-551 -457 552 570 0
551 -570 0
551 -552 0
551 -448 457 0
-552 553 564 566 568 0
-552 553 564 -566 -568 0
552 -564 0
552 566 -568 0
552 -553 0
552 -566 568 0
-553 -531 -554 -559 0
-553 537 554 559 0
-553 537 -554 -559 0
-553 -531 554 559 0
553 -554 559 0
553 554 -559 0
553 531 -537 0
-554 -610 400 0
-554 610 555 0
554 610 -555 0
554 -610 -400 0
-555 611 558 0
-555 -611 556 0
-555 611 -557 0
555 -611 -556 0
555 611 557 -558 0
556 -612 -491 0
556 612 -494 0
-556 612 494 0
-556 -612 491 0
557 -612 493 0
-557 612 0
-557 -493 0
-558 612 -613 471 0
-558 612 613 535 0
558 -612 0
558 -613 -471 0
558 613 -535 0
559 -610 -407 0
559 610 -560 0
-559 610 560 0
-559 -610 407 0
560 611 -561 0
560 -611 -563 0
-560 -611 563 0
-560 611 561 0
561 -612 -499 0
561 612 -562 0
-561 -612 499 0
-561 612 562 0
-562 613 541 0
-562 -613 477 0
562 -613 -477 0
562 613 -541 0
563 612 -498 0
563 -612 -501 0
-563 -612 501 0
-563 612 498 0
564 610 -565 0
564 610 506 -515 0
564 610 -506 515 0
-564 -610 0
-564 506 515 565 0
-564 -506 -515 565 0
-565 230 321 -487 -502 0
-565 -230 -321 -487 -502 0
-565 230 321 487 502 0
-565 -230 -321 487 502 0
565 230 -321 0
565 -230 321 0
565 487 -502 0
565 -487 502 0
566 -440 -567 0
566 610 -567 0
-566 567 0
-566 -610 440 0
-567 610 -611 334 0
-567 610 611 340 0
567 -610 0
567 -611 -334 0
567 611 -340 0
-568 -610 441 0
-568 610 569 0
568 -610 -441 0
568 610 -569 0
-569 -611 361 0
-569 611 357 0
569 611 -357 0
569 -611 -361 0
-570 571 -577 -579 581 0
-570 571 577 579 581 0
570 -581 0
570 577 -579 0
570 -571 0
570 -577 579 0
-571 572 -573 -575 0
-571 572 573 575 0
571 -572 0
571 573 -575 0
571 -573 575 0
-572 229 351 0
-572 -305 -332 0
-572 229 -332 0
-572 -305 351 0
572 -229 305 0
572 332 -351 0
-573 -610 369 0
-573 610 574 0
573 -610 -369 0
573 610 -574 0
-574 611 520 0
-574 -611 432 0
574 -611 -432 0
574 611 -520 0
-575 -610 371 0
-575 610 576 0
575 -610 -371 0
575 610 -576 0
-576 611 529 0
-576 -611 434 0
576 -611 -434 0
576 611 -529 0
-577 -610 417 0
-577 610 578 0
577 -610 -417 0
577 610 -578 0
-578 611 556 0
-578 -611 403 0
578 -611 -403 0
578 611 -556 0
-579 -610 418 0
-579 610 580 0
579 -610 -418 0
579 610 -580 0
-580 611 563 0
-580 -611 408 0
580 -611 -408 0
580 611 -563 0
-581 505 582 0
-581 202 -511 582 0
581 -582 0
581 -505 511 0
581 -202 -505 0
582 486 -495 0
-582 -486 0
-582 495 0
-647 0
2 0

